Route #1: 1 49 37 31 5 39 21 51 8 1
Route #2: 1 53 44 60 11 20 43 4 1
Route #3: 1 18 26 16 50 40 46 6 19 2 42 30 1
Route #4: 1 63 32 45 48 12 35 52 59 23 1
Route #5: 1 62 22 24 38 17 55 41 1
Route #6: 1 14 27 29 58 33 1
Route #7: 1 25 47 61 1
Route #8: 1 34 56 36 28 1
Route #9: 1 7 9 13 10 3 1
Route #10: 1 15 54 57 1
cost 1596.0910407385752
